(set-info :Origin "This instance was generated by: BanditFuzz-- an RL fuzzer for SMT solvers" )
(set-info :Author "Joe Scott, Fed Mora, Vijay Ganesh" )
(set-info :Contact "Joe Scott, joseph.scott@uwaterloo.ca")
(set-logic QF_BV)
(declare-const bool_0 Bool)
(declare-const bool_1 Bool)
(declare-const bool_2 Bool)
(declare-const bool_3 Bool)
(declare-const bool_4 Bool)
(declare-const bv_0 (_ BitVec 32))
(declare-const bv_1 (_ BitVec 32))
(declare-const bv_2 (_ BitVec 32))
(declare-const bv_3 (_ BitVec 32))
(declare-const bv_4 (_ BitVec 32))
(assert (bvule (bvlshr (bvashr bv_4 bv_2) (bvnor #xdb804779  bv_4)) (bvxnor (bvshl #x28692563  #x2d3ff14e ) (bvor #x418c347d  bv_1))))
(assert (bvslt (bvmul (bvmul #xfd7245a7  #x3b287300 ) (bvor bv_0 #x3e13ea55 )) (bvsmod (bvsub bv_4 #xd22143a5 ) (bvadd bv_0 bv_3))))
(assert (bvsgt (bvashr (bvsrem #xd86cb8fc  #xf309847b ) (bvurem bv_3 #x5a7f8a27 )) (bvnor (bvxnor #x493a4e3c  bv_1) (bvsub #xbf566995  bv_3))))
(assert (=> (and (bvslt bv_2 bv_0) (bvult bv_4 #xf46a0819 )) (not (bvult bv_1 #x02edde31 ))))
(assert (bvslt (bvsdiv (bvshl #xde0bf258  bv_0) (bvudiv bv_1 #xa5437016 )) (bvmul (bvsdiv bv_1 #x52acb96c ) (bvadd bv_3 bv_3))))
(check-sat)
(exit)
